Phonon dispersion
 &INPUTPH
  prefix='IceIh',
  tr2_ph = 1.0d-14,
  amass(1) = 1.00794,
  amass(2) = 15.9994
  ldisp = .true.,
  nq1 = 4,
  nq2 = 4,
  nq3 = 4,
  outdir='./out'
  fildyn='IceIh.dyn',
 /
