&input
   fildyn='IceIh.dyn',
   zasr='simple',
   flfrc='IceIh444.fc'
 /
