&input
   fildyn='IceIh.dyn',
   zasr='simple',
   flfrc='IceIh.fc'
 /
