&CONTROL
  calculation = 'scf'
  etot_conv_thr =   3.6000000000d-04
  forc_conv_thr =   1.0000000000d-04
  outdir = './out/'
  prefix = 'IceIh'
  pseudo_dir = './pseudo/'
  tprnfor = .true.
  tstress = .true.
  verbosity = 'high'
/
&SYSTEM
  degauss =   1.4699723600d-02
  ecutrho =   4.8000000000d+02
  ecutwfc =   50
  ibrav = 0
  nat = 36
  nosym = .false.
  ntyp = 2
  occupations = 'smearing'
  smearing = 'cold'
/
&ELECTRONS
  conv_thr =   7.2000000000d-09
  electron_maxstep = 80
  mixing_beta =   4.0000000000d-01
/
ATOMIC_SPECIES
H      1.00794 H.pbesol-rrkjus_psl.1.0.0.UPF
O      15.9994 O.pbesol-n-kjpaw_psl.0.1.UPF
ATOMIC_POSITIONS (crystal)
O             0.3307775014        0.3307775014        0.5558618715
O             0.6692224986        0.0000000000        0.5558618715
O             0.0000000000        0.6692224986        0.5558618715
O             0.6692224986        0.6692224986        0.0558618715
O             0.3307775014       -0.0000000000        0.0558618715
O             0.0000000000        0.3307775014        0.0558618715
O             0.6637735972        0.6637735972        0.4311192124
O             0.3362264028       -0.0000000000        0.4311192124
O            -0.0000000000        0.3362264028        0.4311192124
O             0.3362264028        0.3362264028        0.9311192124
O             0.6637735972       -0.0000000000        0.9311192124
O             0.0000000000        0.6637735972        0.9311192124
H             0.3342840733        0.3342840733        0.6924169883
H             0.6657159267        0.0000000000        0.6924169883
H             0.0000000000        0.6657159267        0.6924169883
H             0.6657159267        0.6657159267        0.1924169883
H             0.3342840733       -0.0000000000        0.1924169883
H             0.0000000000        0.3342840733        0.1924169883
H             0.4532992809        0.4532992809        0.5142728751
H             0.5467007191       -0.0000000000        0.5142728751
H             0.0000000000        0.5467007191        0.5142728751
H             0.5467007191        0.5467007191        0.0142728751
H             0.4532992809       -0.0000000000        0.0142728751
H            -0.0000000000        0.4532992809        0.0142728751
H             0.7862460160        0.6673737118        0.4781645264
H             0.3326262882        0.1188723041        0.4781645264
H             0.8811276959        0.2137539840        0.4781645264
H             0.6673737118        0.7862460160        0.4781645264
H             0.1188723041        0.3326262882        0.4781645264
H             0.2137539840        0.8811276959        0.4781645264
H             0.2137539840        0.3326262882        0.9781645264
H             0.6673737118        0.8811276959        0.9781645264
H             0.1188723041        0.7862460160        0.9781645264
H             0.3326262882        0.2137539840        0.9781645264
H             0.8811276959        0.6673737118        0.9781645264
H             0.7862460160        0.1188723041        0.9781645264
K_POINTS automatic
2 2 2 0 0 0
CELL_PARAMETERS angstrom
      7.8200000000       0.0000000000       0.0000000000
     -3.9100000000       6.7723186576       0.0000000000
      0.0000000000       0.0000000000       7.3600000000
