&CONTROL
  calculation = 'scf'
  etot_conv_thr =   3.6000000000d-04
  forc_conv_thr =   1.0000000000d-04
  outdir = './out/'
  prefix = 'IceIh'
  pseudo_dir = './pseudo/'
  tprnfor = .true.
  tstress = .true.
  verbosity = 'high'
/
&SYSTEM
  degauss =   1.4699723600d-02
  ecutrho =   4.8000000000d+02
  ecutwfc =   50
  ibrav = 0
  nat = 36
  nosym = .false.
  ntyp = 2
  occupations = 'smearing'
  smearing = 'cold'
/
&ELECTRONS
  conv_thr =   7.2000000000d-09
  electron_maxstep = 80
  mixing_beta =   4.0000000000d-01
/
ATOMIC_SPECIES
H      1.00794 H.pbesol-rrkjus_psl.1.0.0.UPF
O      15.9994 O.pbesol-n-kjpaw_psl.0.1.UPF
ATOMIC_POSITIONS crystal
O            0.3333000000       0.3333000000       0.5625000000 
O            0.6667000000       0.0000000000       0.5625000000 
O           -0.0000000000       0.6667000000       0.5625000000 
O            0.6667000000       0.6667000000       0.0625000000 
O            0.3333000000       0.0000000000       0.0625000000 
O            0.0000000000       0.3333000000       0.0625000000 
O            0.6667000000       0.6667000000       0.4375000000 
O            0.3333000000       0.0000000000       0.4375000000 
O            0.0000000000       0.3333000000       0.4375000000 
O            0.3333000000       0.3333000000       0.9375000000 
O            0.6667000000       0.0000000000       0.9375000000 
O           -0.0000000000       0.6667000000       0.9375000000 
H            0.3333000000       0.3333000000       0.6740000000 
H            0.6667000000       0.0000000000       0.6740000000 
H           -0.0000000000       0.6667000000       0.6740000000 
H            0.6667000000       0.6667000000       0.1740000000 
H            0.3333000000       0.0000000000       0.1740000000 
H            0.0000000000       0.3333000000       0.1740000000 
H            0.4380000000       0.4380000000       0.5260000000 
H            0.5620000000       0.0000000000       0.5260000000 
H            0.0000000000       0.5620000000       0.5260000000 
H            0.5620000000       0.5620000000       0.0260000000 
H            0.4380000000       0.0000000000       0.0260000000 
H           -0.0000000000       0.4380000000       0.0260000000 
H            0.7720000000       0.6670000000       0.4750000000 
H            0.3330000000       0.1050000000       0.4750000000 
H            0.8950000000       0.2280000000       0.4750000000 
H            0.6670000000       0.7720000000       0.4750000000 
H            0.1050000000       0.3330000000       0.4750000000 
H            0.2280000000       0.8950000000       0.4750000000 
H            0.2280000000       0.3330000000       0.9750000000 
H            0.6670000000       0.8950000000       0.9750000000 
H            0.1050000000       0.7720000000       0.9750000000 
H            0.3330000000       0.2280000000       0.9750000000 
H            0.8950000000       0.6670000000       0.9750000000 
H            0.7720000000       0.1050000000       0.9750000000 
K_POINTS automatic
kx ky kz 0 0 0
CELL_PARAMETERS angstrom
      7.8200000000       0.0000000000       0.0000000000
     -3.9100000000       6.7723186576       0.0000000000
      0.0000000000       0.0000000000       7.3600000000
